55027
1 1 1 0 1 1 1 1 1 1 1 1 1 1 0 1 1 1 0 1 1 1 1 1 1 1 1 1 1 1
19 20 1 15 9 26 8 6 6 25 9 4 0 12 9 2 7 16 16 5 16 16 4 5 17 8 7 0 20 16 6 5 7 2 2 27 1 24 24 10 1 12 12 1 20 22 12 5 22 19 17 13 24 4 24 4 2 5 19 1 17 27 22 25 15 21 5 7 9 10 20 9 2 8 5 15 17 11 15 16 5 25 11 24 20 5 15 2 24 15 9 29 0 27 29 17 20 10 11 1 6 9 19 11 27 19 1 11 13 9 25 1 21 1 7 17 1 8 11 6 0 10 10 13 28 15 21 17 8 21 10 8 12 27 16 26 5 23 22 9 2 17 19 17 11 19 11 8 11 9 8 11 1 22 4 25 0 24 12 17 23 8 19 17 26 0 2 15 19 23 2 2 24 20 23 7 2 10 27 4 26 4 28 22 28 15 29 4 28 20 16 8 26 20 8 10 4 1 27 8